162210.0
0 51 70 61 98 87 5 91 25 68 33 10 55 1 79 73 52 97 86 47 15 82 50 20 7 96 88 54 67 34 27 62 57 9 40 37 45 28 64 31 90 42 81 14 83 72 43 99 21 39 19 66 12 93 65 13 29 17 6 36 4 41 30 32 53 63 85 35 46 95 44 24 71 16 84 11 74 69 18 78 89 59 80 77 8 60 76 26 75 94 56 92 22 48 58 23 38 3 2 49 0 